c uprop, v00.0, 
c reading from data/prog333.c.cnf
c done reading: 0.002603
p cnf 153 724
-58 -79 0
-58 -75 0
58 75 79 0
-52 75 79 0
-52 -75 -79 0
52 75 -79 0
52 -75 79 0
58 -70 0
-68 -70 0
-58 68 70 0
-58 -63 68 0
58 -63 -68 0
58 63 68 0
-58 63 -68 0
-59 70 0
-56 -59 0
56 59 -70 0
-54 56 -70 0
-54 -56 70 0
54 56 70 0
54 -56 -70 0
-53 59 0
-50 -53 0
50 53 -59 0
50 -59 -77 0
-50 59 -77 0
50 59 77 0
-50 -59 77 0
53 -81 0
-72 -81 0
-53 72 81 0
-53 72 -82 0
53 -72 -82 0
53 72 82 0
-53 -72 82 0
81 -83 0
-65 -83 0
65 -81 83 0
65 -81 -84 0
-65 81 -84 0
65 81 84 0
-65 -81 84 0
83 -85 0
-61 -85 0
61 -83 85 0
61 -83 -86 0
-61 83 -86 0
61 83 86 0
-61 -83 86 0
75 -87 0
79 -87 0
-75 -79 87 0
-75 -79 -88 0
75 79 -88 0
-75 79 88 0
75 -79 88 0
-68 -75 89 0
-68 -87 89 0
-75 -87 89 0
68 75 -89 0
68 87 -89 0
75 87 -89 0
68 -89 -90 0
75 -89 -90 0
87 -89 -90 0
-68 89 90 0
-75 89 90 0
-87 89 90 0
-68 -75 -87 90 0
68 75 87 -90 0
-56 -68 91 0
-56 -89 91 0
-68 -89 91 0
56 68 -91 0
56 89 -91 0
68 89 -91 0
56 -91 -92 0
68 -91 -92 0
89 -91 -92 0
-56 91 92 0
-68 91 92 0
-89 91 92 0
-56 -68 -89 92 0
56 68 89 -92 0
-50 -56 93 0
-50 -91 93 0
-56 -91 93 0
50 56 -93 0
50 91 -93 0
56 91 -93 0
-48 50 -93 0
-48 56 -93 0
-48 91 -93 0
48 -50 93 0
48 -56 93 0
48 -91 93 0
48 -50 -56 -91 0
-48 50 56 91 0
47 -50 -72 0
47 -72 -93 0
47 -50 -93 0
-47 50 72 0
-47 72 93 0
-47 50 93 0
-46 -47 72 0
-46 -47 50 0
-46 -47 93 0
46 47 -72 0
46 47 -50 0
46 47 -93 0
46 -50 -72 -93 0
-46 50 72 93 0
45 -65 -72 0
45 -47 -65 0
45 -47 -72 0
-45 65 72 0
-45 47 65 0
-45 47 72 0
-44 -45 65 0
-44 -45 72 0
-44 -45 47 0
44 45 -65 0
44 45 -72 0
44 45 -47 0
44 -47 -65 -72 0
-44 47 65 72 0
43 -61 -65 0
43 -45 -61 0
43 -45 -65 0
-43 61 65 0
-43 45 61 0
-43 45 65 0
-43 61 -78 0
-43 65 -78 0
-43 45 -78 0
43 -61 78 0
43 -65 78 0
43 -45 78 0
-45 -61 -65 78 0
45 61 65 -78 0
61 -74 0
43 -74 0
-43 -61 74 0
-43 -61 -67 0
43 61 -67 0
43 -61 67 0
-43 61 67 0
48 -55 0
-55 79 0
-48 55 -79 0
-48 -49 -79 0
48 -49 79 0
-48 49 79 0
48 49 -79 0
-46 71 -75 0
-46 -55 71 0
-55 71 -75 0
46 -71 75 0
46 55 -71 0
55 -71 75 0
46 -64 -71 0
-64 -71 75 0
55 -64 -71 0
-46 64 71 0
64 71 -75 0
-55 64 71 0
-46 -55 64 -75 0
46 55 -64 75 0
-44 60 -68 0
-44 60 -71 0
60 -68 -71 0
44 -60 68 0
44 -60 71 0
-60 68 71 0
-44 60 0
60 -68 0
60 -71 0
-44 -68 -71 0
42 -56 -78 0
42 -60 -78 0
42 -56 -60 0
-42 56 78 0
-42 60 78 0
-42 56 60 0
42 -78 0
42 -56 0
42 -60 0
-56 -60 -78 0
41 -50 -67 0
41 -42 -67 0
41 -42 -50 0
-41 50 67 0
-41 42 67 0
-41 42 50 0
41 -67 0
41 -50 0
41 -42 0
-42 -50 -67 0
40 -72 -74 0
40 -41 -74 0
40 -41 -72 0
-40 72 74 0
-40 41 74 0
-40 41 72 0
40 -74 0
40 -72 0
40 -41 0
-41 -72 -74 0
-39 65 0
-39 40 0
39 -40 -65 0
40 -65 0
-40 65 0
-39 -61 0
39 -61 0
-39 61 0
-38 -79 0
-38 -88 0
38 79 88 0
-37 79 88 0
-37 -79 -88 0
37 -79 88 0
37 79 -88 0
-36 38 0
-36 -90 0
36 -38 90 0
-35 -38 90 0
-35 38 -90 0
35 38 90 0
35 -38 -90 0
-34 36 0
-34 -92 0
34 -36 92 0
-33 -36 92 0
-33 36 -92 0
33 36 92 0
33 -36 -92 0
-32 34 0
-32 -49 0
32 -34 49 0
-31 -34 49 0
-31 34 -49 0
31 34 49 0
31 -34 -49 0
-30 32 0
-30 -64 0
30 -32 64 0
-29 -32 64 0
-29 32 -64 0
29 32 64 0
29 -32 -64 0
-28 30 0
28 -30 0
-27 -30 0
27 30 0
28 -94 0
-28 94 0
-28 -95 0
28 95 0
94 -96 0
-94 96 0
-94 -97 0
94 97 0
96 -98 0
-96 98 0
-96 -99 0
96 99 0
98 -100 0
-98 100 0
-98 -101 0
98 101 0
100 -102 0
-100 102 0
-100 -103 0
100 103 0
102 -104 0
-102 104 0
-102 -105 0
102 105 0
-106 -108 0
106 108 0
-109 -111 0
109 111 0
-112 -114 0
112 114 0
-115 -117 0
115 117 0
-118 -120 0
118 120 0
-121 -123 0
121 123 0
-124 -126 0
124 126 0
106 -127 0
-106 127 0
-106 -128 0
106 128 0
-106 -109 129 0
-109 -127 129 0
-106 -127 129 0
106 109 -129 0
109 127 -129 0
106 127 -129 0
109 -129 -130 0
106 -129 -130 0
127 -129 -130 0
-109 129 130 0
-106 129 130 0
-127 129 130 0
-106 -109 -127 130 0
106 109 127 -130 0
-109 -112 131 0
-112 -129 131 0
-109 -129 131 0
109 112 -131 0
112 129 -131 0
109 129 -131 0
112 -131 -132 0
109 -131 -132 0
129 -131 -132 0
-112 131 132 0
-109 131 132 0
-129 131 132 0
-109 -112 -129 132 0
109 112 129 -132 0
-112 -115 133 0
-115 -131 133 0
-112 -131 133 0
112 115 -133 0
115 131 -133 0
112 131 -133 0
115 -133 -134 0
112 -133 -134 0
131 -133 -134 0
-115 133 134 0
-112 133 134 0
-131 133 134 0
-112 -115 -131 134 0
112 115 131 -134 0
-115 -118 135 0
-118 -133 135 0
-115 -133 135 0
115 118 -135 0
118 133 -135 0
115 133 -135 0
118 -135 -136 0
115 -135 -136 0
133 -135 -136 0
-118 135 136 0
-115 135 136 0
-133 135 136 0
-115 -118 -133 136 0
115 118 133 -136 0
-118 -121 137 0
-121 -135 137 0
-118 -135 137 0
118 121 -137 0
121 135 -137 0
118 135 -137 0
-80 121 -137 0
-80 118 -137 0
-80 135 -137 0
80 -121 137 0
80 -118 137 0
80 -135 137 0
80 -118 -121 -135 0
-80 118 121 135 0
76 -121 -124 0
76 -124 -137 0
76 -121 -137 0
-76 121 124 0
-76 124 137 0
-76 121 137 0
-69 -76 124 0
-69 -76 121 0
-69 -76 137 0
69 76 -124 0
69 76 -121 0
69 76 -137 0
69 -121 -124 -137 0
-69 121 124 137 0
-57 124 0
-57 76 0
57 -76 -124 0
-51 -76 -124 0
-51 76 124 0
51 76 -124 0
51 -76 124 0
-73 130 0
73 -130 0
-66 -130 0
66 130 0
62 -106 -132 0
62 -73 -132 0
62 -73 -106 0
-62 106 132 0
-62 73 132 0
-62 73 106 0
-62 132 -138 0
-62 106 -138 0
-62 73 -138 0
62 -132 138 0
62 -106 138 0
62 -73 138 0
-73 -106 -132 138 0
73 106 132 -138 0
107 -109 -134 0
-62 107 -134 0
-62 107 -109 0
-107 109 134 0
62 -107 134 0
62 -107 109 0
-107 -110 134 0
-107 109 -110 0
62 -107 -110 0
107 110 -134 0
107 -109 110 0
-62 107 110 0
-62 -109 110 -134 0
62 109 -110 134 0
-112 113 -136 0
-107 113 -136 0
-107 -112 113 0
112 -113 136 0
107 -113 136 0
107 112 -113 0
-113 -116 136 0
112 -113 -116 0
107 -113 -116 0
113 116 -136 0
-112 113 116 0
-107 113 116 0
-107 -112 116 -136 0
107 112 -116 136 0
-80 -115 119 0
-80 -113 119 0
-113 -115 119 0
80 115 -119 0
80 113 -119 0
113 115 -119 0
80 -119 -122 0
115 -119 -122 0
113 -119 -122 0
-80 119 122 0
-115 119 122 0
-113 119 122 0
-80 -113 -115 122 0
80 113 115 -122 0
-69 -118 125 0
-69 -119 125 0
-118 -119 125 0
69 118 -125 0
69 119 -125 0
118 119 -125 0
69 -125 -139 0
118 -125 -139 0
119 -125 -139 0
-69 125 139 0
-118 125 139 0
-119 125 139 0
-69 -118 -119 139 0
69 118 119 -139 0
-51 -121 140 0
-51 -125 140 0
-121 -125 140 0
51 121 -140 0
51 125 -140 0
121 125 -140 0
51 -140 -141 0
121 -140 -141 0
125 -140 -141 0
-51 140 141 0
-121 140 141 0
-125 140 141 0
-51 -121 -125 141 0
51 121 125 -141 0
-57 -124 142 0
-57 -140 142 0
-124 -140 142 0
57 124 -142 0
57 140 -142 0
124 140 -142 0
57 -142 -143 0
124 -142 -143 0
140 -142 -143 0
-57 142 143 0
-124 142 143 0
-140 142 143 0
-57 -124 -140 143 0
57 124 140 -143 0
138 -144 0
-138 144 0
-138 -145 0
138 145 0
-106 -110 146 0
-110 -144 146 0
-106 -144 146 0
106 110 -146 0
110 144 -146 0
106 144 -146 0
110 -146 -147 0
106 -146 -147 0
144 -146 -147 0
-110 146 147 0
-106 146 147 0
-144 146 147 0
-106 -110 -144 147 0
106 110 144 -147 0
-109 -116 148 0
-116 -146 148 0
-109 -146 148 0
109 116 -148 0
116 146 -148 0
109 146 -148 0
116 -148 -149 0
109 -148 -149 0
146 -148 -149 0
-116 148 149 0
-109 148 149 0
-146 148 149 0
-109 -116 -146 149 0
109 116 146 -149 0
-112 -122 150 0
-122 -148 150 0
-112 -148 150 0
112 122 -150 0
122 148 -150 0
112 148 -150 0
122 -150 -151 0
112 -150 -151 0
148 -150 -151 0
-122 150 151 0
-112 150 151 0
-148 150 151 0
-112 -122 -148 151 0
112 122 148 -151 0
-115 -139 152 0
-139 -150 152 0
-115 -150 152 0
115 139 -152 0
139 150 -152 0
115 150 -152 0
139 -152 -153 0
115 -152 -153 0
150 -152 -153 0
-139 152 153 0
-115 152 153 0
-150 152 153 0
-115 -139 -150 153 0
115 139 150 -153 0
26 -118 -141 0
26 -141 -152 0
26 -118 -152 0
-26 118 141 0
-26 141 152 0
-26 118 152 0
-25 -26 141 0
-25 -26 118 0
-25 -26 152 0
25 26 -141 0
25 26 -118 0
25 26 -152 0
25 -118 -141 -152 0
-25 118 141 152 0
24 -121 -143 0
24 -26 -143 0
24 -26 -121 0
-24 121 143 0
-24 26 143 0
-24 26 121 0
-23 -24 143 0
-23 -24 121 0
-23 -24 26 0
23 24 -143 0
23 24 -121 0
23 24 -26 0
23 -26 -121 -143 0
-23 26 121 143 0
22 -124 -142 0
22 -24 -142 0
22 -24 -124 0
-22 124 142 0
-22 24 142 0
-22 24 124 0
-21 -22 142 0
-21 -22 124 0
-21 -22 24 0
21 22 -142 0
21 22 -124 0
21 22 -24 0
21 -24 -124 -142 0
-21 24 124 142 0
-20 149 0
20 -149 0
-19 -149 0
19 149 0
18 -106 -151 0
18 -20 -151 0
18 -20 -106 0
-18 106 151 0
-18 20 151 0
-18 20 106 0
-17 -18 151 0
-17 -18 106 0
-17 -18 20 0
17 18 -151 0
17 18 -106 0
17 18 -20 0
17 -20 -106 -151 0
-17 20 106 151 0
16 -109 -153 0
16 -18 -153 0
16 -18 -109 0
-16 109 153 0
-16 18 153 0
-16 18 109 0
16 -153 0
16 -109 0
16 -18 0
-18 -109 -153 0
15 -25 -112 0
15 -16 -25 0
15 -16 -112 0
-15 25 112 0
-15 16 25 0
-15 16 112 0
15 -25 0
15 -112 0
15 -16 0
-16 -25 -112 0
14 -23 -115 0
14 -15 -23 0
14 -15 -115 0
-14 23 115 0
-14 15 23 0
-14 15 115 0
14 -23 0
14 -115 0
14 -15 0
-15 -23 -115 0
13 -21 -118 0
13 -14 -21 0
13 -14 -118 0
-13 21 118 0
-13 14 21 0
-13 14 118 0
13 -21 0
13 -118 0
13 -14 0
-14 -21 -118 0
12 -22 -121 0
12 -13 -22 0
12 -13 -121 0
-12 22 121 0
-12 13 22 0
-12 13 121 0
12 -22 0
12 -121 0
12 -13 0
-13 -22 -121 0
-12 -124 0
12 -124 0
-12 124 0
-11 -128 0
11 128 0
-10 -66 0
10 66 0
-9 -145 0
9 145 0
-8 -147 0
8 147 0
-7 -19 0
7 19 0
-6 -17 0
6 17 0
-5 79 0
-5 128 0
5 -79 -128 0
-79 128 0
79 -128 0
4 -66 -88 0
4 -5 -88 0
4 -5 -66 0
-4 66 88 0
-4 5 88 0
-4 5 66 0
4 -88 0
4 -66 0
4 -5 0
-5 -66 -88 0
3 -90 -145 0
3 -4 -90 0
3 -4 -145 0
-3 90 145 0
-3 4 90 0
-3 4 145 0
3 -90 0
3 -145 0
3 -4 0
-4 -90 -145 0
2 -92 -147 0
2 -3 -92 0
2 -3 -147 0
-2 92 147 0
-2 3 92 0
-2 3 147 0
-2 92 0
-2 147 0
-2 3 0
3 92 147 0
1 -19 -49 0
1 -2 -49 0
1 -2 -19 0
-1 19 49 0
-1 2 49 0
-1 2 19 0
1 -49 0
1 -19 0
1 -2 0
-2 -19 -49 0
-17 -64 0
-1 -64 0
-1 -17 0
1 17 64 0
